17	4
52	40	30	24	
0	0	0	0	0	3	2	3	4	
2	0	7	9	9	3	6	8	9	
4	6	0	0	1	2	7	17	
2	2	2	3	0	2	5	11	
10	9	6	8	2	1	13	
125	3	2	0	0	3	10	14	15	
125	0	0	10	2	3	8	12	17	
175	10	3	8	5	2	16	17	
200	9	0	1	0	1	17	
150	10	8	0	4	3	17	17	17	
50	4	7	3	0	1	17	
150	4	6	6	0	1	17	
5	4	7	4	0	1	17	
3	4	9	0	3	1	17	
5	6	5	3	1	2	17	17	
1	2	9	1	6	1	17	
0	0	0	0	0	0	
